0 7994814
2 7967043
4 7859302
5 7843291
11 7805611
14 7740516
16 7724613
20 7724512
24 7705453
27 7665972
28 7630600
41 7628325
45 7588841
48 7413212
50 7363982
52 7331206
56 7314411
60 7312507
67 7311844
68 7310941
69 7309714
71 7284226
91 7281626
101 7281395
114 7280993
124 7271230
125 7266825
146 7266212
150 7224157
175 7223814
176 7223653
183 7219462
184 7219416
202 7194430
212 7179785
232 7178760
258 7178521
280 7176063
350 7175300
370 7175006
375 7164283
405 7162843
412 7162794
418 7162358
477 7159131
522 7159023
544 7158708
551 7158435
638 7151324
649 7151174
660 7147087
671 7146709
729 7146281
762 7146183
780 7145612
821 7137435
822 7129843
845 7129791
860 7129752
879 7129709
926 7123454
1005 7123187
1335 7122290
1743 7121829
